10J3M/DAT/10J3MNNR-4.dat
10 3
24.3269 26.0119
20.0065 35.4023
22.3664 21.734
34.1523 36.7758
20.8863 31.6353
23.2359 24.6367
29.6887 29.8191
23.0142 48.8451
27.0267 0.4694
24.4237 47.6629
302.9925