10J3M/SOL/10J3MNNR-4.sol
solution status: optimal solution found
objective value:                              81.9594
x#1#2                                               1 	(obj:0)
x#2#2                                               1 	(obj:0)
x#3#1                                               1 	(obj:0)
x#4#1                                0.58830196136953 	(obj:0)
x#4#2                                0.41169803863047 	(obj:0)
x#5#1                                               1 	(obj:0)
x#6#2                                               1 	(obj:0)
x#7#3                                               1 	(obj:0)
x#8#3                                               1 	(obj:0)
x#9#2                               0.222090265543879 	(obj:0)
x#9#3                               0.777909734456121 	(obj:0)
x#10#1                                              1 	(obj:0)
z                                             81.9594 	(obj:1)
